 3x3x3 supercell
       11.677977420780
     0.00000000000000     1.50000000000000     1.50000000000000 
     1.50000000000000     0.00000000000000     1.50000000000000 
     1.50000000000000     1.50000000000000     0.00000000000000 
  Cs Sn I
  54 27 162
 Direct coordinates
   0.08333333333333   0.08333333333333   0.08333333333333  site   1 species 1: Cs
   0.08333333333333   0.08333333333333   0.41666666666667  site   2 species 1: Cs
   0.08333333333333   0.08333333333333   0.75000000000000  site   3 species 1: Cs
   0.08333333333333   0.41666666666667   0.08333333333333  site   4 species 1: Cs
   0.08333333333333   0.41666666666667   0.41666666666667  site   5 species 1: Cs
   0.08333333333333   0.41666666666667   0.75000000000000  site   6 species 1: Cs
   0.08333333333333   0.75000000000000   0.08333333333333  site   7 species 1: Cs
   0.08333333333333   0.75000000000000   0.41666666666667  site   8 species 1: Cs
   0.08333333333333   0.75000000000000   0.75000000000000  site   9 species 1: Cs
   0.41666666666667   0.08333333333333   0.08333333333333  site  10 species 1: Cs
   0.41666666666667   0.08333333333333   0.41666666666667  site  11 species 1: Cs
   0.41666666666667   0.08333333333333   0.75000000000000  site  12 species 1: Cs
   0.41666666666667   0.41666666666667   0.08333333333333  site  13 species 1: Cs
   0.41666666666667   0.41666666666667   0.41666666666667  site  14 species 1: Cs
   0.41666666666667   0.41666666666667   0.75000000000000  site  15 species 1: Cs
   0.41666666666667   0.75000000000000   0.08333333333333  site  16 species 1: Cs
   0.41666666666667   0.75000000000000   0.41666666666667  site  17 species 1: Cs
   0.41666666666667   0.75000000000000   0.75000000000000  site  18 species 1: Cs
   0.75000000000000   0.08333333333333   0.08333333333333  site  19 species 1: Cs
   0.75000000000000   0.08333333333333   0.41666666666667  site  20 species 1: Cs
   0.75000000000000   0.08333333333333   0.75000000000000  site  21 species 1: Cs
   0.75000000000000   0.41666666666667   0.08333333333333  site  22 species 1: Cs
   0.75000000000000   0.41666666666667   0.41666666666667  site  23 species 1: Cs
   0.75000000000000   0.41666666666667   0.75000000000000  site  24 species 1: Cs
   0.75000000000000   0.75000000000000   0.08333333333333  site  25 species 1: Cs
   0.75000000000000   0.75000000000000   0.41666666666667  site  26 species 1: Cs
   0.75000000000000   0.75000000000000   0.75000000000000  site  27 species 1: Cs
   0.25000000000000   0.25000000000000   0.25000000000000  site  28 species 1: Cs
   0.25000000000000   0.25000000000000   0.58333333333333  site  29 species 1: Cs
   0.25000000000000   0.25000000000000   0.91666666666667  site  30 species 1: Cs
   0.25000000000000   0.58333333333333   0.25000000000000  site  31 species 1: Cs
   0.25000000000000   0.58333333333333   0.58333333333333  site  32 species 1: Cs
   0.25000000000000   0.58333333333333   0.91666666666667  site  33 species 1: Cs
   0.25000000000000   0.91666666666667   0.25000000000000  site  34 species 1: Cs
   0.25000000000000   0.91666666666667   0.58333333333333  site  35 species 1: Cs
   0.25000000000000   0.91666666666667   0.91666666666667  site  36 species 1: Cs
   0.58333333333333   0.25000000000000   0.25000000000000  site  37 species 1: Cs
   0.58333333333333   0.25000000000000   0.58333333333333  site  38 species 1: Cs
   0.58333333333333   0.25000000000000   0.91666666666667  site  39 species 1: Cs
   0.58333333333333   0.58333333333333   0.25000000000000  site  40 species 1: Cs
   0.58333333333333   0.58333333333333   0.58333333333333  site  41 species 1: Cs
   0.58333333333333   0.58333333333333   0.91666666666667  site  42 species 1: Cs
   0.58333333333333   0.91666666666667   0.25000000000000  site  43 species 1: Cs
   0.58333333333333   0.91666666666667   0.58333333333333  site  44 species 1: Cs
   0.58333333333333   0.91666666666667   0.91666666666667  site  45 species 1: Cs
   0.91666666666667   0.25000000000000   0.25000000000000  site  46 species 1: Cs
   0.91666666666667   0.25000000000000   0.58333333333333  site  47 species 1: Cs
   0.91666666666667   0.25000000000000   0.91666666666667  site  48 species 1: Cs
   0.91666666666667   0.58333333333333   0.25000000000000  site  49 species 1: Cs
   0.91666666666667   0.58333333333333   0.58333333333333  site  50 species 1: Cs
   0.91666666666667   0.58333333333333   0.91666666666667  site  51 species 1: Cs
   0.91666666666667   0.91666666666667   0.25000000000000  site  52 species 1: Cs
   0.91666666666667   0.91666666666667   0.58333333333333  site  53 species 1: Cs
   0.91666666666667   0.91666666666667   0.91666666666667  site  54 species 1: Cs
   0.00000000000000   0.00000000000000   0.00000000000000  site  55 species 2: Sn
   0.00000000000000   0.00000000000000   0.33333333333333  site  56 species 2: Sn
   0.00000000000000   0.00000000000000   0.66666666666667  site  57 species 2: Sn
   0.00000000000000   0.33333333333333   0.00000000000000  site  58 species 2: Sn
   0.00000000000000   0.33333333333333   0.33333333333333  site  59 species 2: Sn
   0.00000000000000   0.33333333333333   0.66666666666667  site  60 species 2: Sn
   0.00000000000000   0.66666666666667   0.00000000000000  site  61 species 2: Sn
   0.00000000000000   0.66666666666667   0.33333333333333  site  62 species 2: Sn
   0.00000000000000   0.66666666666667   0.66666666666667  site  63 species 2: Sn
   0.33333333333333   0.00000000000000   0.00000000000000  site  64 species 2: Sn
   0.33333333333333   0.00000000000000   0.33333333333333  site  65 species 2: Sn
   0.33333333333333   0.00000000000000   0.66666666666667  site  66 species 2: Sn
   0.33333333333333   0.33333333333333   0.00000000000000  site  67 species 2: Sn
   0.33333333333333   0.33333333333333   0.33333333333333  site  68 species 2: Sn
   0.33333333333333   0.33333333333333   0.66666666666667  site  69 species 2: Sn
   0.33333333333333   0.66666666666667   0.00000000000000  site  70 species 2: Sn
   0.33333333333333   0.66666666666667   0.33333333333333  site  71 species 2: Sn
   0.33333333333333   0.66666666666667   0.66666666666667  site  72 species 2: Sn
   0.66666666666667   0.00000000000000   0.00000000000000  site  73 species 2: Sn
   0.66666666666667   0.00000000000000   0.33333333333333  site  74 species 2: Sn
   0.66666666666667   0.00000000000000   0.66666666666667  site  75 species 2: Sn
   0.66666666666667   0.33333333333333   0.00000000000000  site  76 species 2: Sn
   0.66666666666667   0.33333333333333   0.33333333333333  site  77 species 2: Sn
   0.66666666666667   0.33333333333333   0.66666666666667  site  78 species 2: Sn
   0.66666666666667   0.66666666666667   0.00000000000000  site  79 species 2: Sn
   0.66666666666667   0.66666666666667   0.33333333333333  site  80 species 2: Sn
   0.66666666666667   0.66666666666667   0.66666666666667  site  81 species 2: Sn
   0.25128516328109   0.08204817005224   0.08204817005224  site  82 species 3: I 
   0.25128516328109   0.08204817005224   0.41538150338557  site  83 species 3: I 
   0.25128516328109   0.08204817005224   0.74871483671891  site  84 species 3: I 
   0.25128516328109   0.41538150338557   0.08204817005224  site  85 species 3: I 
   0.25128516328109   0.41538150338557   0.41538150338557  site  86 species 3: I 
   0.25128516328109   0.41538150338557   0.74871483671891  site  87 species 3: I 
   0.25128516328109   0.74871483671891   0.08204817005224  site  88 species 3: I 
   0.25128516328109   0.74871483671891   0.41538150338557  site  89 species 3: I 
   0.25128516328109   0.74871483671891   0.74871483671891  site  90 species 3: I 
   0.58461849661443   0.08204817005224   0.08204817005224  site  91 species 3: I 
   0.58461849661443   0.08204817005224   0.41538150338557  site  92 species 3: I 
   0.58461849661443   0.08204817005224   0.74871483671891  site  93 species 3: I 
   0.58461849661443   0.41538150338557   0.08204817005224  site  94 species 3: I 
   0.58461849661443   0.41538150338557   0.41538150338557  site  95 species 3: I 
   0.58461849661443   0.41538150338557   0.74871483671891  site  96 species 3: I 
   0.58461849661443   0.74871483671891   0.08204817005224  site  97 species 3: I 
   0.58461849661443   0.74871483671891   0.41538150338557  site  98 species 3: I 
   0.58461849661443   0.74871483671891   0.74871483671891  site  99 species 3: I 
   0.91795182994776   0.08204817005224   0.08204817005224  site 100 species 3: I 
   0.91795182994776   0.08204817005224   0.41538150338557  site 101 species 3: I 
   0.91795182994776   0.08204817005224   0.74871483671891  site 102 species 3: I 
   0.91795182994776   0.41538150338557   0.08204817005224  site 103 species 3: I 
   0.91795182994776   0.41538150338557   0.41538150338557  site 104 species 3: I 
   0.91795182994776   0.41538150338557   0.74871483671891  site 105 species 3: I 
   0.91795182994776   0.74871483671891   0.08204817005224  site 106 species 3: I 
   0.91795182994776   0.74871483671891   0.41538150338557  site 107 species 3: I 
   0.91795182994776   0.74871483671891   0.74871483671891  site 108 species 3: I 
   0.08204817005224   0.25128516328109   0.25128516328109  site 109 species 3: I 
   0.08204817005224   0.25128516328109   0.58461849661443  site 110 species 3: I 
   0.08204817005224   0.25128516328109   0.91795182994776  site 111 species 3: I 
   0.08204817005224   0.58461849661443   0.25128516328109  site 112 species 3: I 
   0.08204817005224   0.58461849661443   0.58461849661443  site 113 species 3: I 
   0.08204817005224   0.58461849661443   0.91795182994776  site 114 species 3: I 
   0.08204817005224   0.91795182994776   0.25128516328109  site 115 species 3: I 
   0.08204817005224   0.91795182994776   0.58461849661443  site 116 species 3: I 
   0.08204817005224   0.91795182994776   0.91795182994776  site 117 species 3: I 
   0.41538150338557   0.25128516328109   0.25128516328109  site 118 species 3: I 
   0.41538150338557   0.25128516328109   0.58461849661443  site 119 species 3: I 
   0.41538150338557   0.25128516328109   0.91795182994776  site 120 species 3: I 
   0.41538150338557   0.58461849661443   0.25128516328109  site 121 species 3: I 
   0.41538150338557   0.58461849661443   0.58461849661443  site 122 species 3: I 
   0.41538150338557   0.58461849661443   0.91795182994776  site 123 species 3: I 
   0.41538150338557   0.91795182994776   0.25128516328109  site 124 species 3: I 
   0.41538150338557   0.91795182994776   0.58461849661443  site 125 species 3: I 
   0.41538150338557   0.91795182994776   0.91795182994776  site 126 species 3: I 
   0.74871483671891   0.25128516328109   0.25128516328109  site 127 species 3: I 
   0.74871483671891   0.25128516328109   0.58461849661443  site 128 species 3: I 
   0.74871483671891   0.25128516328109   0.91795182994776  site 129 species 3: I 
   0.74871483671891   0.58461849661443   0.25128516328109  site 130 species 3: I 
   0.74871483671891   0.58461849661443   0.58461849661443  site 131 species 3: I 
   0.74871483671891   0.58461849661443   0.91795182994776  site 132 species 3: I 
   0.74871483671891   0.91795182994776   0.25128516328109  site 133 species 3: I 
   0.74871483671891   0.91795182994776   0.58461849661443  site 134 species 3: I 
   0.74871483671891   0.91795182994776   0.91795182994776  site 135 species 3: I 
   0.25128516328109   0.08204817005224   0.25128516328109  site 136 species 3: I 
   0.25128516328109   0.08204817005224   0.58461849661443  site 137 species 3: I 
   0.25128516328109   0.08204817005224   0.91795182994776  site 138 species 3: I 
   0.25128516328109   0.41538150338557   0.25128516328109  site 139 species 3: I 
   0.25128516328109   0.41538150338557   0.58461849661443  site 140 species 3: I 
   0.25128516328109   0.41538150338557   0.91795182994776  site 141 species 3: I 
   0.25128516328109   0.74871483671891   0.25128516328109  site 142 species 3: I 
   0.25128516328109   0.74871483671891   0.58461849661443  site 143 species 3: I 
   0.25128516328109   0.74871483671891   0.91795182994776  site 144 species 3: I 
   0.58461849661443   0.08204817005224   0.25128516328109  site 145 species 3: I 
   0.58461849661443   0.08204817005224   0.58461849661443  site 146 species 3: I 
   0.58461849661443   0.08204817005224   0.91795182994776  site 147 species 3: I 
   0.58461849661443   0.41538150338557   0.25128516328109  site 148 species 3: I 
   0.58461849661443   0.41538150338557   0.58461849661443  site 149 species 3: I 
   0.58461849661443   0.41538150338557   0.91795182994776  site 150 species 3: I 
   0.58461849661443   0.74871483671891   0.25128516328109  site 151 species 3: I 
   0.58461849661443   0.74871483671891   0.58461849661443  site 152 species 3: I 
   0.58461849661443   0.74871483671891   0.91795182994776  site 153 species 3: I 
   0.91795182994776   0.08204817005224   0.25128516328109  site 154 species 3: I 
   0.91795182994776   0.08204817005224   0.58461849661443  site 155 species 3: I 
   0.91795182994776   0.08204817005224   0.91795182994776  site 156 species 3: I 
   0.91795182994776   0.41538150338557   0.25128516328109  site 157 species 3: I 
   0.91795182994776   0.41538150338557   0.58461849661443  site 158 species 3: I 
   0.91795182994776   0.41538150338557   0.91795182994776  site 159 species 3: I 
   0.91795182994776   0.74871483671891   0.25128516328109  site 160 species 3: I 
   0.91795182994776   0.74871483671891   0.58461849661443  site 161 species 3: I 
   0.91795182994776   0.74871483671891   0.91795182994776  site 162 species 3: I 
   0.08204817005224   0.25128516328109   0.08204817005224  site 163 species 3: I 
   0.08204817005224   0.25128516328109   0.41538150338557  site 164 species 3: I 
   0.08204817005224   0.25128516328109   0.74871483671891  site 165 species 3: I 
   0.08204817005224   0.58461849661443   0.08204817005224  site 166 species 3: I 
   0.08204817005224   0.58461849661443   0.41538150338557  site 167 species 3: I 
   0.08204817005224   0.58461849661443   0.74871483671891  site 168 species 3: I 
   0.08204817005224   0.91795182994776   0.08204817005224  site 169 species 3: I 
   0.08204817005224   0.91795182994776   0.41538150338557  site 170 species 3: I 
   0.08204817005224   0.91795182994776   0.74871483671891  site 171 species 3: I 
   0.41538150338557   0.25128516328109   0.08204817005224  site 172 species 3: I 
   0.41538150338557   0.25128516328109   0.41538150338557  site 173 species 3: I 
   0.41538150338557   0.25128516328109   0.74871483671891  site 174 species 3: I 
   0.41538150338557   0.58461849661443   0.08204817005224  site 175 species 3: I 
   0.41538150338557   0.58461849661443   0.41538150338557  site 176 species 3: I 
   0.41538150338557   0.58461849661443   0.74871483671891  site 177 species 3: I 
   0.41538150338557   0.91795182994776   0.08204817005224  site 178 species 3: I 
   0.41538150338557   0.91795182994776   0.41538150338557  site 179 species 3: I 
   0.41538150338557   0.91795182994776   0.74871483671891  site 180 species 3: I 
   0.74871483671891   0.25128516328109   0.08204817005224  site 181 species 3: I 
   0.74871483671891   0.25128516328109   0.41538150338557  site 182 species 3: I 
   0.74871483671891   0.25128516328109   0.74871483671891  site 183 species 3: I 
   0.74871483671891   0.58461849661443   0.08204817005224  site 184 species 3: I 
   0.74871483671891   0.58461849661443   0.41538150338557  site 185 species 3: I 
   0.74871483671891   0.58461849661443   0.74871483671891  site 186 species 3: I 
   0.74871483671891   0.91795182994776   0.08204817005224  site 187 species 3: I 
   0.74871483671891   0.91795182994776   0.41538150338557  site 188 species 3: I 
   0.74871483671891   0.91795182994776   0.74871483671891  site 189 species 3: I 
   0.25128516328109   0.25128516328109   0.08204817005224  site 190 species 3: I 
   0.25128516328109   0.25128516328109   0.41538150338557  site 191 species 3: I 
   0.25128516328109   0.25128516328109   0.74871483671891  site 192 species 3: I 
   0.25128516328109   0.58461849661443   0.08204817005224  site 193 species 3: I 
   0.25128516328109   0.58461849661443   0.41538150338557  site 194 species 3: I 
   0.25128516328109   0.58461849661443   0.74871483671891  site 195 species 3: I 
   0.25128516328109   0.91795182994776   0.08204817005224  site 196 species 3: I 
   0.25128516328109   0.91795182994776   0.41538150338557  site 197 species 3: I 
   0.25128516328109   0.91795182994776   0.74871483671891  site 198 species 3: I 
   0.58461849661443   0.25128516328109   0.08204817005224  site 199 species 3: I 
   0.58461849661443   0.25128516328109   0.41538150338557  site 200 species 3: I 
   0.58461849661443   0.25128516328109   0.74871483671891  site 201 species 3: I 
   0.58461849661443   0.58461849661443   0.08204817005224  site 202 species 3: I 
   0.58461849661443   0.58461849661443   0.41538150338557  site 203 species 3: I 
   0.58461849661443   0.58461849661443   0.74871483671891  site 204 species 3: I 
   0.58461849661443   0.91795182994776   0.08204817005224  site 205 species 3: I 
   0.58461849661443   0.91795182994776   0.41538150338557  site 206 species 3: I 
   0.58461849661443   0.91795182994776   0.74871483671891  site 207 species 3: I 
   0.91795182994776   0.25128516328109   0.08204817005224  site 208 species 3: I 
   0.91795182994776   0.25128516328109   0.41538150338557  site 209 species 3: I 
   0.91795182994776   0.25128516328109   0.74871483671891  site 210 species 3: I 
   0.91795182994776   0.58461849661443   0.08204817005224  site 211 species 3: I 
   0.91795182994776   0.58461849661443   0.41538150338557  site 212 species 3: I 
   0.91795182994776   0.58461849661443   0.74871483671891  site 213 species 3: I 
   0.91795182994776   0.91795182994776   0.08204817005224  site 214 species 3: I 
   0.91795182994776   0.91795182994776   0.41538150338557  site 215 species 3: I 
   0.91795182994776   0.91795182994776   0.74871483671891  site 216 species 3: I 
   0.08204817005224   0.08204817005224   0.25128516328109  site 217 species 3: I 
   0.08204817005224   0.08204817005224   0.58461849661443  site 218 species 3: I 
   0.08204817005224   0.08204817005224   0.91795182994776  site 219 species 3: I 
   0.08204817005224   0.41538150338557   0.25128516328109  site 220 species 3: I 
   0.08204817005224   0.41538150338557   0.58461849661443  site 221 species 3: I 
   0.08204817005224   0.41538150338557   0.91795182994776  site 222 species 3: I 
   0.08204817005224   0.74871483671891   0.25128516328109  site 223 species 3: I 
   0.08204817005224   0.74871483671891   0.58461849661443  site 224 species 3: I 
   0.08204817005224   0.74871483671891   0.91795182994776  site 225 species 3: I 
   0.41538150338557   0.08204817005224   0.25128516328109  site 226 species 3: I 
   0.41538150338557   0.08204817005224   0.58461849661443  site 227 species 3: I 
   0.41538150338557   0.08204817005224   0.91795182994776  site 228 species 3: I 
   0.41538150338557   0.41538150338557   0.25128516328109  site 229 species 3: I 
   0.41538150338557   0.41538150338557   0.58461849661443  site 230 species 3: I 
   0.41538150338557   0.41538150338557   0.91795182994776  site 231 species 3: I 
   0.41538150338557   0.74871483671891   0.25128516328109  site 232 species 3: I 
   0.41538150338557   0.74871483671891   0.58461849661443  site 233 species 3: I 
   0.41538150338557   0.74871483671891   0.91795182994776  site 234 species 3: I 
   0.74871483671891   0.08204817005224   0.25128516328109  site 235 species 3: I 
   0.74871483671891   0.08204817005224   0.58461849661443  site 236 species 3: I 
   0.74871483671891   0.08204817005224   0.91795182994776  site 237 species 3: I 
   0.74871483671891   0.41538150338557   0.25128516328109  site 238 species 3: I 
   0.74871483671891   0.41538150338557   0.58461849661443  site 239 species 3: I 
   0.74871483671891   0.41538150338557   0.91795182994776  site 240 species 3: I 
   0.74871483671891   0.74871483671891   0.25128516328109  site 241 species 3: I 
   0.74871483671891   0.74871483671891   0.58461849661443  site 242 species 3: I 
   0.74871483671891   0.74871483671891   0.91795182994776  site 243 species 3: I 
