 cell
       11.677977420780
     0.00000000000000     0.50000000000000     0.50000000000000 
     0.50000000000000     0.00000000000000     0.50000000000000 
     0.50000000000000     0.50000000000000     0.00000000000000 
  Cs Sn I
  2 1 6
 Direct coordinates
   0.25000000000000   0.25000000000000   0.25000000000000  site 1 species 1: Cs
   0.75000000000000   0.75000000000000   0.75000000000000  site 2 species 1: Cs
   0.00000000000000   0.00000000000000   0.00000000000000  site 3 species 2: Sn
   0.75385548984328   0.24614451015672   0.24614451015672  site 4 species 3: I 
   0.24614451015672   0.75385548984328   0.75385548984328  site 5 species 3: I 
   0.75385548984328   0.24614451015672   0.75385548984328  site 6 species 3: I 
   0.24614451015672   0.75385548984328   0.24614451015672  site 7 species 3: I 
   0.75385548984328   0.75385548984328   0.24614451015672  site 8 species 3: I 
   0.24614451015672   0.24614451015672   0.75385548984328  site 9 species 3: I 
