generated by phonopy
   1.0
     5.4309504289759412    0.0000000000000000    0.0000000000000000
     0.0000000000000000    5.4309504289759412    0.0000000000000000
     0.0000000000000000    0.0000000000000000    5.4309504289759412
Si
   8
Direct
  0.0000000000000000  0.5000000000000000  0.5000000000000000
  0.2500000000000000  0.7500000000000000  0.7500000000000000
  0.0000000000000000  0.0000000000000000  0.0000000000000000
  0.2500000000000000  0.2500000000000000  0.2500000000000000
  0.5000000000000000  0.5000000000000000  0.0000000000000000
  0.7500000000000000  0.7500000000000000  0.2500000000000000
  0.5000000000000000  0.0000000000000000  0.5000000000000000
  0.7500000000000000  0.2500000000000000  0.7500000000000000
