Si 
 1.0000000000000000
     0.0000000000000000   13.5773760724398525   13.5773760724398525
    13.5773760724398525    0.0000000000000000   13.5773760724398525
    13.5773760724398525   13.5773760724398525    0.0000000000000000
 250
Cartesian
  0.1000000000000000  0.1000000000000000  0.1000000000000000
  1.4577376072439854  1.4577376072439854  1.4577376072439854
  2.8154752144879707  2.8154752144879707  0.1000000000000000
  4.1732128217319557  4.1732128217319557  1.4577376072439854
  5.5309504289759408  5.5309504289759408  0.1000000000000000
  6.8886880362199259  6.8886880362199259  1.4577376072439854
  8.2464256434639118  8.2464256434639118  0.1000000000000000
  9.6041632507078969  9.6041632507078969  1.4577376072439854
 10.9619008579518820 10.9619008579518820  0.1000000000000000
 12.3196384651958670 12.3196384651958670  1.4577376072439854
  2.8154752144879707  0.1000000000000000  2.8154752144879707
  4.1732128217319557  1.4577376072439854  4.1732128217319557
  5.5309504289759408  2.8154752144879707  2.8154752144879707
  6.8886880362199259  4.1732128217319557  4.1732128217319557
  8.2464256434639118  5.5309504289759408  2.8154752144879707
  9.6041632507078969  6.8886880362199259  4.1732128217319557
 10.9619008579518820  8.2464256434639118  2.8154752144879707
 12.3196384651958670  9.6041632507078969  4.1732128217319557
 13.6773760724398521 10.9619008579518820  2.8154752144879707
 15.0351136796838372 12.3196384651958670  4.1732128217319557
  5.5309504289759408  0.1000000000000000  5.5309504289759408
  6.8886880362199259  1.4577376072439854  6.8886880362199259
  8.2464256434639118  2.8154752144879707  5.5309504289759408
  9.6041632507078969  4.1732128217319557  6.8886880362199259
 10.9619008579518820  5.5309504289759408  5.5309504289759408
 12.3196384651958670  6.8886880362199259  6.8886880362199259
 13.6773760724398539  8.2464256434639118  5.5309504289759408
 15.0351136796838389  9.6041632507078969  6.8886880362199259
 16.3928512869278258 10.9619008579518820  5.5309504289759408
 17.7505888941718126 12.3196384651958670  6.8886880362199259
  8.2464256434639118  0.1000000000000000  8.2464256434639118
  9.6041632507078969  1.4577376072439854  9.6041632507078969
 10.9619008579518820  2.8154752144879707  8.2464256434639118
 12.3196384651958670  4.1732128217319557  9.6041632507078969
 13.6773760724398539  5.5309504289759408  8.2464256434639118
 15.0351136796838389  6.8886880362199259  9.6041632507078969
 16.3928512869278258  8.2464256434639118  8.2464256434639118
 17.7505888941718126  9.6041632507078969  9.6041632507078969
 19.1083265014157959 10.9619008579518820  8.2464256434639118
 20.4660641086597828 12.3196384651958670  9.6041632507078969
 10.9619008579518820  0.1000000000000000 10.9619008579518820
 12.3196384651958670  1.4577376072439854 12.3196384651958670
 13.6773760724398521  2.8154752144879707 10.9619008579518820
 15.0351136796838372  4.1732128217319557 12.3196384651958670
 16.3928512869278258  5.5309504289759408 10.9619008579518820
 17.7505888941718126  6.8886880362199259 12.3196384651958670
 19.1083265014157959  8.2464256434639118 10.9619008579518820
 20.4660641086597828  9.6041632507078969 12.3196384651958670
 21.8238017159037661 10.9619008579518820 10.9619008579518820
 23.1815393231477529 12.3196384651958670 12.3196384651958670
  0.1000000000000000  2.8154752144879707  2.8154752144879707
  1.4577376072439854  4.1732128217319557  4.1732128217319557
  2.8154752144879707  5.5309504289759408  2.8154752144879707
  4.1732128217319557  6.8886880362199259  4.1732128217319557
  5.5309504289759408  8.2464256434639118  2.8154752144879707
  6.8886880362199259  9.6041632507078969  4.1732128217319557
  8.2464256434639118 10.9619008579518820  2.8154752144879707
  9.6041632507078969 12.3196384651958670  4.1732128217319557
 10.9619008579518820 13.6773760724398521  2.8154752144879707
 12.3196384651958670 15.0351136796838372  4.1732128217319557
  2.8154752144879707  2.8154752144879707  5.5309504289759408
  4.1732128217319557  4.1732128217319557  6.8886880362199259
  5.5309504289759408  5.5309504289759408  5.5309504289759408
  6.8886880362199259  6.8886880362199259  6.8886880362199259
  8.2464256434639118  8.2464256434639118  5.5309504289759408
  9.6041632507078969  9.6041632507078969  6.8886880362199259
 10.9619008579518820 10.9619008579518820  5.5309504289759408
 12.3196384651958670 12.3196384651958670  6.8886880362199259
 13.6773760724398521 13.6773760724398521  5.5309504289759408
 15.0351136796838372 15.0351136796838372  6.8886880362199259
  5.5309504289759408  2.8154752144879707  8.2464256434639118
  6.8886880362199259  4.1732128217319557  9.6041632507078969
  8.2464256434639118  5.5309504289759408  8.2464256434639118
  9.6041632507078969  6.8886880362199259  9.6041632507078969
 10.9619008579518820  8.2464256434639118  8.2464256434639118
 12.3196384651958670  9.6041632507078969  9.6041632507078969
 13.6773760724398539 10.9619008579518820  8.2464256434639118
 15.0351136796838389 12.3196384651958670  9.6041632507078969
 16.3928512869278258 13.6773760724398521  8.2464256434639118
 17.7505888941718126 15.0351136796838372  9.6041632507078969
  8.2464256434639118  2.8154752144879707 10.9619008579518820
  9.6041632507078969  4.1732128217319557 12.3196384651958670
 10.9619008579518820  5.5309504289759408 10.9619008579518820
 12.3196384651958670  6.8886880362199259 12.3196384651958670
 13.6773760724398539  8.2464256434639118 10.9619008579518820
 15.0351136796838389  9.6041632507078969 12.3196384651958670
 16.3928512869278258 10.9619008579518820 10.9619008579518820
 17.7505888941718126 12.3196384651958670 12.3196384651958670
 19.1083265014157959 13.6773760724398521 10.9619008579518820
 20.4660641086597828 15.0351136796838372 12.3196384651958670
 10.9619008579518820  2.8154752144879707 13.6773760724398521
 12.3196384651958670  4.1732128217319557 15.0351136796838372
 13.6773760724398521  5.5309504289759408 13.6773760724398521
 15.0351136796838372  6.8886880362199259 15.0351136796838372
 16.3928512869278258  8.2464256434639118 13.6773760724398521
 17.7505888941718126  9.6041632507078969 15.0351136796838372
 19.1083265014157959 10.9619008579518820 13.6773760724398521
 20.4660641086597828 12.3196384651958670 15.0351136796838372
 21.8238017159037661 13.6773760724398521 13.6773760724398521
 23.1815393231477529 15.0351136796838372 15.0351136796838372
  0.1000000000000000  5.5309504289759408  5.5309504289759408
  1.4577376072439854  6.8886880362199259  6.8886880362199259
  2.8154752144879707  8.2464256434639118  5.5309504289759408
  4.1732128217319557  9.6041632507078969  6.8886880362199259
  5.5309504289759408 10.9619008579518820  5.5309504289759408
  6.8886880362199259 12.3196384651958670  6.8886880362199259
  8.2464256434639118 13.6773760724398539  5.5309504289759408
  9.6041632507078969 15.0351136796838389  6.8886880362199259
 10.9619008579518820 16.3928512869278258  5.5309504289759408
 12.3196384651958670 17.7505888941718126  6.8886880362199259
  2.8154752144879707  5.5309504289759408  8.2464256434639118
  4.1732128217319557  6.8886880362199259  9.6041632507078969
  5.5309504289759408  8.2464256434639118  8.2464256434639118
  6.8886880362199259  9.6041632507078969  9.6041632507078969
  8.2464256434639118 10.9619008579518820  8.2464256434639118
  9.6041632507078969 12.3196384651958670  9.6041632507078969
 10.9619008579518820 13.6773760724398539  8.2464256434639118
 12.3196384651958670 15.0351136796838389  9.6041632507078969
 13.6773760724398521 16.3928512869278258  8.2464256434639118
 15.0351136796838372 17.7505888941718126  9.6041632507078969
  5.5309504289759408  5.5309504289759408 10.9619008579518820
  6.8886880362199259  6.8886880362199259 12.3196384651958670
  8.2464256434639118  8.2464256434639118 10.9619008579518820
  9.6041632507078969  9.6041632507078969 12.3196384651958670
 10.9619008579518820 10.9619008579518820 10.9619008579518820
 12.3196384651958670 12.3196384651958670 12.3196384651958670
 13.6773760724398539 13.6773760724398539 10.9619008579518820
 15.0351136796838389 15.0351136796838389 12.3196384651958670
 16.3928512869278258 16.3928512869278258 10.9619008579518820
 17.7505888941718126 17.7505888941718126 12.3196384651958670
  8.2464256434639118  5.5309504289759408 13.6773760724398539
  9.6041632507078969  6.8886880362199259 15.0351136796838389
 10.9619008579518820  8.2464256434639118 13.6773760724398539
 12.3196384651958670  9.6041632507078969 15.0351136796838389
 13.6773760724398539 10.9619008579518820 13.6773760724398539
 15.0351136796838389 12.3196384651958670 15.0351136796838389
 16.3928512869278258 13.6773760724398539 13.6773760724398539
 17.7505888941718126 15.0351136796838389 15.0351136796838389
 19.1083265014157959 16.3928512869278258 13.6773760724398539
 20.4660641086597828 17.7505888941718126 15.0351136796838389
 10.9619008579518820  5.5309504289759408 16.3928512869278258
 12.3196384651958670  6.8886880362199259 17.7505888941718126
 13.6773760724398521  8.2464256434639118 16.3928512869278258
 15.0351136796838372  9.6041632507078969 17.7505888941718126
 16.3928512869278258 10.9619008579518820 16.3928512869278258
 17.7505888941718126 12.3196384651958670 17.7505888941718126
 19.1083265014157959 13.6773760724398539 16.3928512869278258
 20.4660641086597828 15.0351136796838389 17.7505888941718126
 21.8238017159037661 16.3928512869278258 16.3928512869278258
 23.1815393231477529 17.7505888941718126 17.7505888941718126
  0.1000000000000000  8.2464256434639118  8.2464256434639118
  1.4577376072439854  9.6041632507078969  9.6041632507078969
  2.8154752144879707 10.9619008579518820  8.2464256434639118
  4.1732128217319557 12.3196384651958670  9.6041632507078969
  5.5309504289759408 13.6773760724398539  8.2464256434639118
  6.8886880362199259 15.0351136796838389  9.6041632507078969
  8.2464256434639118 16.3928512869278258  8.2464256434639118
  9.6041632507078969 17.7505888941718126  9.6041632507078969
 10.9619008579518820 19.1083265014157959  8.2464256434639118
 12.3196384651958670 20.4660641086597828  9.6041632507078969
  2.8154752144879707  8.2464256434639118 10.9619008579518820
  4.1732128217319557  9.6041632507078969 12.3196384651958670
  5.5309504289759408 10.9619008579518820 10.9619008579518820
  6.8886880362199259 12.3196384651958670 12.3196384651958670
  8.2464256434639118 13.6773760724398539 10.9619008579518820
  9.6041632507078969 15.0351136796838389 12.3196384651958670
 10.9619008579518820 16.3928512869278258 10.9619008579518820
 12.3196384651958670 17.7505888941718126 12.3196384651958670
 13.6773760724398521 19.1083265014157959 10.9619008579518820
 15.0351136796838372 20.4660641086597828 12.3196384651958670
  5.5309504289759408  8.2464256434639118 13.6773760724398539
  6.8886880362199259  9.6041632507078969 15.0351136796838389
  8.2464256434639118 10.9619008579518820 13.6773760724398539
  9.6041632507078969 12.3196384651958670 15.0351136796838389
 10.9619008579518820 13.6773760724398539 13.6773760724398539
 12.3196384651958670 15.0351136796838389 15.0351136796838389
 13.6773760724398539 16.3928512869278258 13.6773760724398539
 15.0351136796838389 17.7505888941718126 15.0351136796838389
 16.3928512869278258 19.1083265014157959 13.6773760724398539
 17.7505888941718126 20.4660641086597828 15.0351136796838389
  8.2464256434639118  8.2464256434639118 16.3928512869278258
  9.6041632507078969  9.6041632507078969 17.7505888941718126
 10.9619008579518820 10.9619008579518820 16.3928512869278258
 12.3196384651958670 12.3196384651958670 17.7505888941718126
 13.6773760724398539 13.6773760724398539 16.3928512869278258
 15.0351136796838389 15.0351136796838389 17.7505888941718126
 16.3928512869278258 16.3928512869278258 16.3928512869278258
 17.7505888941718126 17.7505888941718126 17.7505888941718126
 19.1083265014157959 19.1083265014157959 16.3928512869278258
 20.4660641086597828 20.4660641086597828 17.7505888941718126
 10.9619008579518820  8.2464256434639118 19.1083265014157959
 12.3196384651958670  9.6041632507078969 20.4660641086597828
 13.6773760724398521 10.9619008579518820 19.1083265014157959
 15.0351136796838372 12.3196384651958670 20.4660641086597828
 16.3928512869278258 13.6773760724398539 19.1083265014157959
 17.7505888941718126 15.0351136796838389 20.4660641086597828
 19.1083265014157959 16.3928512869278258 19.1083265014157959
 20.4660641086597828 17.7505888941718126 20.4660641086597828
 21.8238017159037661 19.1083265014157959 19.1083265014157959
 23.1815393231477529 20.4660641086597828 20.4660641086597828
  0.1000000000000000 10.9619008579518820 10.9619008579518820
  1.4577376072439854 12.3196384651958670 12.3196384651958670
  2.8154752144879707 13.6773760724398521 10.9619008579518820
  4.1732128217319557 15.0351136796838372 12.3196384651958670
  5.5309504289759408 16.3928512869278258 10.9619008579518820
  6.8886880362199259 17.7505888941718126 12.3196384651958670
  8.2464256434639118 19.1083265014157959 10.9619008579518820
  9.6041632507078969 20.4660641086597828 12.3196384651958670
 10.9619008579518820 21.8238017159037661 10.9619008579518820
 12.3196384651958670 23.1815393231477529 12.3196384651958670
  2.8154752144879707 10.9619008579518820 13.6773760724398521
  4.1732128217319557 12.3196384651958670 15.0351136796838372
  5.5309504289759408 13.6773760724398521 13.6773760724398521
  6.8886880362199259 15.0351136796838372 15.0351136796838372
  8.2464256434639118 16.3928512869278258 13.6773760724398521
  9.6041632507078969 17.7505888941718126 15.0351136796838372
 10.9619008579518820 19.1083265014157959 13.6773760724398521
 12.3196384651958670 20.4660641086597828 15.0351136796838372
 13.6773760724398521 21.8238017159037661 13.6773760724398521
 15.0351136796838372 23.1815393231477529 15.0351136796838372
  5.5309504289759408 10.9619008579518820 16.3928512869278258
  6.8886880362199259 12.3196384651958670 17.7505888941718126
  8.2464256434639118 13.6773760724398521 16.3928512869278258
  9.6041632507078969 15.0351136796838372 17.7505888941718126
 10.9619008579518820 16.3928512869278258 16.3928512869278258
 12.3196384651958670 17.7505888941718126 17.7505888941718126
 13.6773760724398539 19.1083265014157959 16.3928512869278258
 15.0351136796838389 20.4660641086597828 17.7505888941718126
 16.3928512869278258 21.8238017159037661 16.3928512869278258
 17.7505888941718126 23.1815393231477529 17.7505888941718126
  8.2464256434639118 10.9619008579518820 19.1083265014157959
  9.6041632507078969 12.3196384651958670 20.4660641086597828
 10.9619008579518820 13.6773760724398521 19.1083265014157959
 12.3196384651958670 15.0351136796838372 20.4660641086597828
 13.6773760724398539 16.3928512869278258 19.1083265014157959
 15.0351136796838389 17.7505888941718126 20.4660641086597828
 16.3928512869278258 19.1083265014157959 19.1083265014157959
 17.7505888941718126 20.4660641086597828 20.4660641086597828
 19.1083265014157959 21.8238017159037661 19.1083265014157959
 20.4660641086597828 23.1815393231477529 20.4660641086597828
 10.9619008579518820 10.9619008579518820 21.8238017159037661
 12.3196384651958670 12.3196384651958670 23.1815393231477529
 13.6773760724398521 13.6773760724398521 21.8238017159037661
 15.0351136796838372 15.0351136796838372 23.1815393231477529
 16.3928512869278258 16.3928512869278258 21.8238017159037661
 17.7505888941718126 17.7505888941718126 23.1815393231477529
 19.1083265014157959 19.1083265014157959 21.8238017159037661
 20.4660641086597828 20.4660641086597828 23.1815393231477529
 21.8238017159037661 21.8238017159037661 21.8238017159037661
 23.1815393231477529 23.1815393231477529 23.1815393231477529
