Cs Sn  I 
 1.0000000000000000
     0.0000000000000000    5.8389887103899998    5.8389887103899998
     5.8389887103899998    0.0000000000000000    5.8389887103899998
     5.8389887103899998    5.8389887103899998    0.0000000000000000
 Cs  Sn  I  
   2   1   6
Cartesian
  2.9194943551949999  2.9194943551949999  2.9194943551949999
  8.7584830655850006  8.7584830655850006  8.7584830655850006
  0.0000000000000000  0.0000000000000000  0.0000000000000000
  2.8744700318591296  5.8389887103899998  5.8389887103899998
  8.8035073889208704  5.8389887103899998  5.8389887103899998
  5.8389887103899998  8.8035073889208704  5.8389887103899998
  5.8389887103899998  2.8744700318591296  5.8389887103899998
  5.8389887103899998  5.8389887103899998  8.8035073889208704
  5.8389887103899998  5.8389887103899998  2.8744700318591296
